benchmarks_vrp/CMT5/min_c/CMT5_8.vrp
NAME: CMT5_8
TYPE: CVRP
COMMENT: 1291.29 - Cluster Nr.8
DIMENSION: 18
CAPACITY: 200
EDGE_WEIGHT_TYPE: EUC_2D
NODE_COORD_TYPE: TWOD_COORDS
NODE_COORD_SECTION: 
17 4 18
4 10 17
10 18 18
5 12 24
1 15 10
6 15 19
11 10 20
12 5 5
13 13 13
14 11 14
2 16 22
18 15 14
15 35 35
7 5 6
8 12 17
3 16 19
9 21 10
16 23 3
DEPOT_SECTION: 
15
-1
DEMAND_SECTION: 
13 9
15 0
11 19
3 18
4 27
17 35
16 7
7 7
5 13
1 20
12 16
14 18
2 41
18 11
6 1
8 15
9 13
10 17
EOF
