benchmarks_vrp/CMT5/min_c/CMT5_8.tour
NAME: CMT5_8 solution
TYPE: TOUR
TOUR_SECTION:
15 5 11 17 7 12 1 9 16 -1
15 2 3 6 8 4 14 13 18 10 -1
-1
EOF